p cnf 27 67
a 24 20 0
e 1 2 3 4 5 6 7 8 9 10 11 12 13 14 15 16 17 18 19 21 22 23 25 26 27 0
3 -1 0
3 2 0
1 -2 -3 0
4 -3 0
4 -3 0
3 -4 0
-6 5 0
-6 5 0
-5 6 0
-7 -4 0
-7 -6 0
4 6 7 0
-7 8 -9 0
7 -8 -9 0
-7 -8 9 0
7 8 9 0
11 -10 0
11 -1 0
10 1 -11 0
-12 9 0
-12 11 0
-9 -11 12 0
14 5 0
14 1 0
-5 -1 -14 0
-15 -14 0
-15 -11 0
14 11 15 0
16 -13 0
16 15 0
13 -15 -16 0
-18 -17 0
-18 -11 0
17 11 18 0
19 16 0
19 -18 0
-16 18 -19 0
-20 -12 0
-20 19 0
12 -19 20 0
21 1 0
21 5 0
-1 -5 -21 0
-22 -3 0
-22 6 0
3 -6 22 0
23 21 0
23 22 0
-21 -22 -23 0
-24 17 -25 0
24 -17 -25 0
-24 -17 25 0
24 17 25 0
26 23 0
26 -25 0
-23 25 -26 0
-20 26 -27 0
20 -26 -27 0
-20 -26 27 0
20 26 27 0
-11 -18 3 19 23 2 0
7 -2 -22 0
15 -22 -24 2 0
-11 20 16 0
-1 24 8 9 -11 0
-1 -4 -5 -11 0
27 0
